
  12   12
  10   10   10   10   10   10   10   10   10   10   10   10

   0   0   0   0   0   0   0   0   0   0   0   0   0   6 2 3 4 5 6 11 
   8   1   0   0   0   0   1   0   0   1   0   0   0   2 10 7 
   7   0   0   0   1   5   8   0   0   0   0   1   0   2 9 7 
   6   6   1   0   5   0   0   0   1   0   0   0   0   2 10 8 
   9   6   6   0   0   0   0   0   0   6   1   9   0   2 9 8 
   4   0   0   0   0   0   6   0   0   7   8   0   1   2 9 8 
   4   0   4   1   0   0   0   0   0   0   0   0   0   1 8 
   6   0   9   0   9   0   0   0   8   7   0   0   8   1 12
   8   0   0   0   0   0   0   0   0   0   0   0   4   1 12
   2   7   0   9   0   0   0   5   6   0   6   0   7   1 12
   2   0   0   0   0   0   0   0   0   4   0   0   0   1 12
   0   0   0   0   0   0   0   0   0   0   0   0   0   0 
